50 8
609 455
423 801
621 466
244 233
421 795
484 349
100 543
439 548
828 210
513 962
457 383
326 620
414 602
833 729
602 331
248 527
132 455
181 289
421 643
224 163
467 241
614 785
538 45
597 858
536 806
397 654
565 58
317 475
292 552
843 651
445 697
695 834
787 291
189 526
761 430
437 440
454 150
648 507
166 568
864 302
153 486
897 275
611 879
776 590
465 115
510 363
203 569
480 438
403 54
537 94
